p edge 24 74
e 1 2
e 1 3
e 1 4
e 1 5
e 1 9
e 1 10
e 1 14
e 1 21
e 2 7
e 2 11
e 2 12
e 2 13
e 2 14
e 2 20
e 2 21
e 3 4
e 3 7
e 3 9
e 3 18
e 3 19
e 4 5
e 4 6
e 4 8
e 4 9
e 4 15
e 4 18
e 4 20
e 5 10
e 5 15
e 5 18
e 5 20
e 5 22
e 6 7
e 6 8
e 6 10
e 6 15
e 6 23
e 7 11
e 7 12
e 7 13
e 7 16
e 7 18
e 7 19
e 8 15
e 9 10
e 9 13
e 9 18
e 9 24
e 10 11
e 10 12
e 10 15
e 10 24
e 11 12
e 11 16
e 11 19
e 12 13
e 12 17
e 12 19
e 13 17
e 14 21
e 14 24
e 15 18
e 15 20
e 16 19
e 16 22
e 17 18
e 18 19
e 18 20
e 19 22
e 20 21
e 21 23
e 22 23
e 22 24
e 23 24
